(declare-const |i':71| Int)
(declare-const |K:78| Int)
(declare-const |j':60| Int)
(declare-const |k':55| Int)
(assert (and (or (not (and (<= (- |K:78|) 0) (<= |K:78| 0)))
                   (= (+ |k':55| -9) 0))
               (or (not (<= (+ (- |K:78|) 1) 0)) (= (+ |k':55| -4) 0))
               (or (not (<= (- |K:78|) 0)) (= (+ |i':71| (- |K:78|)) 0))
               (or (not (<= (- |K:78|) 0))
                     (<= (+ |k':55| (* -3 |K:78|) -9) 0))
               (or (not (<= (- |K:78|) 0)) (<= (+ (- |j':60|) -100) 0))
               (or (and (= |K:78| 0) (= (+ (- |k':55|) 9) 0)
                          (= (+ (- |j':60|) -100) 0) (= (- |i':71|) 0))
                     (and (<= (+ (- |K:78|) 1) 0) (= (+ |k':55| -4) 0)
                            (<= (+ |i':71| -101) 0) (<= (+ (- |j':60|) 20) 0)
                            (<= (+ (- |i':71|) 1) 0))) (<= (- |K:78|) 0)
               (< (- |k':55|) 0) (<= (- |i':71|) 0) (< (+ (- |i':71|) 100) 0)
               (not (= (+ |k':55| -4) 0))))
(check-sat)
